HUN,8,6,307
5,30,2,24,1,24,4,28,0,24,3,21
0,23,1,27,3,29,5,25,4,24,2,29
1,22,3,25,4,30,0,24,5,27,2,22
0,25,5,29,2,23,1,27,4,25,3,30
4,26,2,27,0,22,1,27,3,26,5,26
3,22,5,25,0,22,1,29,4,22,2,28
2,29,3,23,0,30,1,27,5,27,4,28
3,25,0,23,5,22,4,26,1,23,2,21
